&CONTROL
                 calculation = 'nscf',
                restart_mode = 'from_scratch',
                outdir = '/workpar/mfcaf/diamondol-OH_C19_no-OH',
                pseudo_dir = '/home/ibm/proj/proj394/mfcaf/pseudo',
                      prefix = 'diam_3x3-paral_C19'    ,
                   verbosity = 'high',
                     tefield = .false.,
                    dipfield = .false.,
                 etot_conv_thr = 1.0D-5,
                 forc_conv_thr = 1.0D-6,
                       nstep = 500,
/
&SYSTEM
                       ibrav = 0,
!!                           a = 6.5209,
                         nat = 36,
                        ntyp = 2,
                     ecutwfc = 60.00 ,
                     ecutrho = 480.00 ,
                 occupations = 'smearing' ,
                     degauss = 0.01 ,
                    smearing = 'gaussian' ,
                  tot_charge = +1.0,
                        nbnd = 400,
!                 lda_plus_u = .false.
                       nspin = 2,
! Hubbard_U(1) = 1.0,
! Hubbard_U(2) = 1.0,
starting_magnetization(1) = 1.0,
starting_magnetization(2) = 1.0,
!                  input_dft = 'vdw-df-obk8',
!  edir = 3,
!  emaxpos =  0.65, 
!  eopreg =  0.05,
!  eamp = 0.00972 ,
/
&ELECTRONS
            electron_maxstep = 999,
                    conv_thr = 1.0D-6 ,
                 mixing_mode = 'plain' ,
                 mixing_beta = 0.7 ,
             diagonalization = 'david' ,
            startingwfc = 'random' ,
/
&IONS
                ion_dynamics = 'bfgs' ,
/
!&CELL
!cell_dofree = 2Dxy,
!    press_conv_thr  = 0.5D0
!    press           = 0.D0
!    cell_dynamics   = 'bfgs'
!/
CELL_PARAMETERS { angstrom }
   6.636096384  -3.815166536   0.000000000
   0.014072979   7.654710001   0.000000000
   0.000000000   0.000000000  24.196248000
ATOMIC_SPECIES
C    	12.011   C.pbe-n-rrkjus_psl.1.0.0.UPF
Ch      12.011   Ch1s.pbe-n-rrkjus_psl.1.0.0.UPF
ATOMIC_POSITIONS { angstrom }
C       -1.362189003  -2.759911693   0.081964305
C       -2.098378852  -1.484763330   0.433418593
C        0.849840321  -4.031627986   0.081953934
C        0.113651638  -2.756480623   0.433417020
C        3.061890756  -5.303361637   0.081952978
C        2.325691568  -4.028198165   0.433404867
C       -1.357489049  -0.208337149   0.081965076
C       -2.093688490   1.066825301   0.433418002
C        0.854539921  -1.480053343   0.081963967
Ch       0.118350458  -0.204906135   0.433421133
C        3.066580784  -2.751770458   0.081953514
C        2.330390334  -1.476624233   0.433416389
C       -1.352804268   2.343244245   0.081965149
C       -2.088993727   3.618391178   0.433425794
C        0.859234717   1.071511174   0.081964183
C        0.123036672   2.346674430   0.433417611
C        3.071275340  -0.200205907   0.081963132
C        2.335084992   1.074942158   0.433417117
C       -2.095851659  -1.489101265   2.075423713
C       -2.830082352  -0.217352009   2.572985342
C        0.116194622  -2.760829924   2.075422499
C       -0.618041762  -1.489070325   2.572988089
C        2.328224215  -4.032544946   2.075414172
C        1.593994475  -2.760800671   2.572984537
C       -2.091160630   1.062470914   2.075423330
C       -2.825389375   2.334213969   2.572994257
C        0.120882577  -0.209251904   2.075422030
C       -0.613348711   1.062495950   2.572987254
C        2.332920069  -1.480981273   2.075421388
C        1.598681257  -0.209223386   2.572986503
C       -2.086459645   3.614042116   2.075431926
C       -2.820696587   4.885800043   2.572994966
C        0.125578810   2.342327786   2.075422894
C       -0.608649892   3.614071054   2.572994379
C        2.337613199   1.070604342   2.075421938
C        1.603380175   2.342351813   2.572983934
K_POINTS automatic
  8 8 1 0 0 0
