&projwfc
outdir = '/workpar/mfcaf/diamondol-OH_C19_no-OH',
prefix = 'diam_3x3-paral_C19'    ,
ngauss=0, 
degauss=0.01470,
Emin = -15.0,
Emax = 55.0,
DeltaE=0.01
kresolveddos=.false.
filpdos='atomC19.pdos'     
/
