&CONTROL
                 calculation = 'nscf', 
                restart_mode = 'from_scratch', 
                      outdir = './'
                  pseudo_dir = './',
                      prefix = 'diam_hcp' ,
                       nstep = 250,
                 verbosity = 'high' ,
/
&SYSTEM
                       ibrav = 0,
                   celldm(1) = 14.24320652,
                         nat = 72,
                        ntyp = 2,
                        nbnd = 350,
                     ecutwfc = 50.0 ,
                     ecutrho = 350.0,
                 tot_charge = +1.0,
                 occupations = 'smearing' ,
                     degauss = 0.01 ,
                    smearing = 'gaussian' ,
                       nspin = 2,
   starting_magnetization(1) = 0.5,
   starting_magnetization(2) = 0.5,
/
&ELECTRONS
            electron_maxstep = 250,
                    conv_thr = 1.0D-6 ,
                 mixing_mode = 'plain' ,
                 mixing_beta = 0.25 ,
             diagonalization = 'david' ,
/
&IONS
                ion_dynamics = 'bfgs' ,
/
&CELL
                cell_dynamics = 'bfgs',
/
CELL_PARAMETERS   { alat }
   0.999822033  -0.000000000   0.000000000
  -0.499911016   0.865871280   0.000000000
   0.000000000   0.000000000   1.109414122
ATOMIC_SPECIES
Ch   12.01    Ch1s.pbe-n-rrkjus_psl.1.0.0.UPF
C    12.01    C.pbe-n-rrkjus_psl.1.0.0.UPF
ATOMIC_POSITIONS { angstrom }
C        1.255980955   0.725140943   1.566416891
C        1.256024516  -0.725166093   3.656988075
C        1.255981201   0.725141085   0.000496374
C        1.256024095  -0.725165850   2.091093576
Ch        1.255981653   0.725141346   5.747334438
C        1.256024265  -0.725165948   7.837911794
C        1.255980542   0.725140705   4.181430949
C        1.256025301  -0.725166546   6.272017748
C        0.000000000   2.900593843   1.566427408
C       -0.000000000   1.450332184   3.656988075
C       -0.000000000   2.900595540   0.000499201
C        0.000000000   1.450331698   2.091093576
C       -0.000000000   2.900592204   5.747348691
C       -0.000000000   1.450331895   7.837911794
C        0.000000000   2.900591623   4.181433735
C        0.000000000   1.450333090   6.272017748
C       -1.255930139   5.075928654   1.566427408
C       -1.255987308   3.625672438   3.656979414
C       -1.255928669   5.075927805   0.000499201
C       -1.255985862   3.625673273   2.091070294
C       -1.255931558   5.075929473   5.747348691
C       -1.255984806   3.625673883   7.837905832
C       -1.255932061   5.075929764   4.181433735
C       -1.255984633   3.625673983   6.271996773
C        3.767918091   0.725095774   1.566438118
C        3.767918091  -0.725119304   3.656979414
C        3.767918091   0.725094472   0.000505192
C        3.767918091  -0.725120975   2.091070294
C        3.767918091   0.725098189   5.747353035
C        3.767918091  -0.725122193   7.837905832
C        3.767918091   0.725097257   4.181439962
C        3.767918091  -0.725122394   6.271996773
C        2.511910405   2.900564901   1.566438118
C        2.512007187   1.450308026   3.656991167
C        2.511909277   2.900565552   0.000505192
C        2.512004447   1.450306444   2.091077718
C        2.511912497   2.900563693   5.747353035
C        2.512004014   1.450306194   7.837913694
C        2.511911689   2.900564159   4.181439962
C        2.512004863   1.450306684   6.271997555
C        1.255930138   5.075928654   1.566427408
C        1.255987307   3.625672438   3.656979414
C        1.255928668   5.075927805   0.000499201
C        1.255985861   3.625673273   2.091070294
C        1.255931557   5.075929473   5.747348691
C        1.255984805   3.625673883   7.837905832
C        1.255932060   5.075929764   4.181433735
C        1.255984632   3.625673983   6.271996773
C        6.279855226   0.725140943   1.566416891
C        6.279811666  -0.725166093   3.656988075
C        6.279854981   0.725141085   0.000496374
C        6.279812087  -0.725165850   2.091093576
C        6.279854529   0.725141346   5.747334438
C        6.279811916  -0.725165948   7.837911794
C        6.279855639   0.725140705   4.181430949
C        6.279810881  -0.725166546   6.272017748
C        5.023925776   2.900564901   1.566438118
C        5.023828993   1.450308026   3.656991167
C        5.023926904   2.900565552   0.000505192
C        5.023831734   1.450306444   2.091077718
C        5.023923684   2.900563693   5.747353035
C        5.023832166   1.450306194   7.837913694
C        5.023924491   2.900564159   4.181439962
C        5.023831318   1.450306684   6.271997555
C        3.767918090   5.075943690   1.566416891
C        3.767918090   3.625609521   3.656991167
C        3.767918090   5.075943406   0.000496374
C        3.767918090   3.625612685   2.091077718
C        3.767918090   5.075942884   5.747334438
C        3.767918090   3.625613184   7.837913694
C        3.767918090   5.075944166   4.181430949
C        3.767918090   3.625612205   6.271997555
K_POINTS automatic
  20 20 20   0 0 0
