&CONTROL
                 calculation = 'scf', 
                restart_mode = 'from_scratch', 
                      outdir = './'
                  pseudo_dir = './',
                      prefix = 'diam_hex_atom28' ,
                       nstep = 250,
                 verbosity = 'high' ,
/
&SYSTEM
                       ibrav = 0,
                   celldm(1) = 14.217687075,
                         nat = 72,
                        ntyp = 2,
                        nbnd = 350,
                     ecutwfc = 50.0 ,
                     ecutrho = 350.0,
                 tot_charge = +1.0,
                 occupations = 'smearing' ,
                     degauss = 0.01 ,
                    smearing = 'gaussian' ,
                       nspin = 2,
   starting_magnetization(1) = 0.5,
   starting_magnetization(2) = 0.5,
/
&ELECTRONS
            electron_maxstep = 250,
                    conv_thr = 1.0D-6 ,
                 mixing_mode = 'plain' ,
                 mixing_beta = 0.7 ,
             diagonalization = 'david' ,
/
&IONS
                ion_dynamics = 'bfgs' ,
/
&CELL
                cell_dynamics = 'bfgs',
/
CELL_PARAMETERS   { alat }
   1.001667754   0.000000000   0.000000000
  -0.500833877   0.867469721   0.000000000
   0.000000000   0.000000000   1.111433618
ATOMIC_SPECIES
Ch   12.01    Ch1s.pbe-n-rrkjus_psl.1.0.0.UPF
C    12.01    C.pbe-n-rrkjus_psl.1.0.0.UPF
ATOMIC_POSITIONS { angstrom }
C        1.256102730   0.725211250   0.261971666
C        1.256103312  -0.725211586   2.353033519
C        1.256102730  -0.725211250  -0.261971666
C        1.256103067   0.725211444   1.827933278
C        1.256103382   0.725211626   4.442966313
C        1.256103067  -0.725211444   6.534045374
C        1.256103382  -0.725211626   3.919038041
C        1.256103312   0.725211586   6.008945133
C        0.000000000   2.900774009   0.262000116
C        0.000000000   1.450423169   2.353033519
C        0.000000000   1.450422496  -0.261971666
C        0.000000000   2.900764840   1.827985739
C        0.000000000   2.900774815   4.442993602
C        0.000000000   1.450422886   6.534045374
C        0.000000000   1.450423250   3.919038041
C        0.000000000   2.900763877   6.008996787
C       -1.255871564   5.076007365   0.262000116
C       -1.256040899   3.625754026   2.352947413
C       -1.256049950   3.625748801  -0.262073484
C       -1.255879505   5.076011949   1.827985739
C       -1.255870866   5.076006961   4.442993602
C       -1.256041214   3.625753845   6.533958381
C       -1.256049331   3.625749158   3.918936438
C       -1.255880339   5.076012431   6.008996787
C        3.768015546   0.725103238   0.262073484
C        3.768015546  -0.725113688   2.352947413
C        3.768015546  -0.725103238  -0.262073484
Ch        3.768015546   0.725113325   1.828020270
C        3.768015546   0.725103953   4.443067917
C        3.768015546  -0.725113325   6.533958381
C        3.768015546  -0.725103953   3.918936438
C        3.768015546   0.725113688   6.009031239
C        2.511965596   2.900645566   0.262073484
C        2.512135207   1.450381937   2.352981865
C        2.512143982   1.450387003  -0.262000116
C        2.511974332   2.900640523   1.828020270
C        2.511966215   2.900645209   4.443067917
C        2.512136041   1.450382418   6.533992913
C        2.512144680   1.450387406   3.919010752
C        2.511974647   2.900640341   6.009031239
C        1.255871563   5.076007365   0.262000116
C        1.256040898   3.625754026   2.352947413
C        1.256049949   3.625748801  -0.262073484
C        1.255879504   5.076011949   1.827985739
C        1.255870865   5.076006961   4.442993602
C        1.256041213   3.625753845   6.533958381
C        1.256049330   3.625749158   3.918936438
C        1.255880338   5.076012431   6.008996787
C        6.279928363   0.725211250   0.261971666
C        6.279927780  -0.725211586   2.353033519
C        6.279928363  -0.725211250  -0.261971666
C        6.279928025   0.725211444   1.827933278
C        6.279927710   0.725211626   4.442966313
C        6.279928025  -0.725211444   6.534045374
C        6.279927710  -0.725211626   3.919038041
C        6.279927780   0.725211586   6.008945133
C        5.024065495   2.900645566   0.262073484
C        5.023895884   1.450381937   2.352981865
C        5.023887109   1.450387003  -0.262000116
C        5.024056759   2.900640523   1.828020270
C        5.024064876   2.900645209   4.443067917
C        5.023895050   1.450382418   6.533992913
C        5.023886411   1.450387406   3.919010752
C        5.024056444   2.900640341   6.009031239
C        3.768015545   5.075971871   0.261971666
C        3.768015545   3.625630491   2.352981865
C        3.768015545   3.625620359  -0.262000116
C        3.768015545   5.075971482   1.827933278
C        3.768015545   5.075971118   4.442966313
C        3.768015545   3.625629528   6.533992913
C        3.768015545   3.625619552   3.919010752
C        3.768015545   5.075971199   6.008945133
K_POINTS automatic
  3 3 4   0 0 0
