&BANDS
   prefix = 'graphite-aba',
   outdir = '/workpar/mfcaf/graphite-ABA/bare/bands',
   filband = 'out.bands.aba'
   lsym=.true.
/
