&CONTROL
                 calculation = 'nscf',
                restart_mode = 'from_scratch',
                outdir = '/workpar/mfcaf/graphite-ABA/pdos',
                  pseudo_dir = '/home/ibm/proj/proj394/mfcaf/pseudo',
                      prefix = 'graphite-aba' ,
                   verbosity = 'high',
                     tefield = .false.,
                    dipfield = .false.,
                 etot_conv_thr = 1.0D-5,
                 forc_conv_thr = 1.0D-6,
                       nstep = 500,
/
&SYSTEM
                       ibrav = 0,
                     celldm(1) = 13.97015299,
                         nat = 54,
                        ntyp = 2,
                     ecutwfc = 60.00,
                     ecutrho = 480.00 ,
                 occupations = 'smearing' ,
                     degauss = 0.01 ,
                    smearing = 'gaussian' ,
                  tot_charge = +1.0,
                        nbnd = 400,
/
&ELECTRONS
            electron_maxstep = 999,
                    conv_thr = 1.0D-6 ,
                 mixing_mode = 'plain' ,
                 mixing_beta = 0.7 ,
             diagonalization = 'david' ,
!            startingwfc = 'random' ,
/
&IONS
                ion_dynamics = 'bfgs' ,
/
!&CELL
!cell_dofree = 2Dxy,
!    press_conv_thr  = 0.5D0
!    press           = 0.D0
!    cell_dynamics   = 'bfgs'
!/
CELL_PARAMETERS  { alat }
   0.999979134   0.000000157   0.000001054
  -0.499989431   0.866007148  -0.000001433
   0.000001446  -0.000001436   1.372218494
ATOMIC_SPECIES
C    	12.011   C.pbe-n-rrkjus_psl.1.0.0.UPF
Ch      12.011   Ch1s.pbe-n-rrkjus_psl.1.0.0.UPF
ATOMIC_POSITIONS { angstrom }
C      -0.0001349680   -0.0018169620    0.0514288620
C      -0.0001385880    1.4207282490    0.0510103040
C       1.2292333160    0.7079636540    3.4026286790
C       1.2292371530    2.1305122510    3.4026316800
C      -0.0001345240   -0.0018054490    6.7537973840
C      -0.0001365500    1.4207424220    6.7542223780
C      -1.2320945970    2.1319997580    0.0514336070
C      -1.2320982170    3.5545449690    0.0510150490
C      -0.0027263130    2.8417803740    3.4026334240
C      -0.0027224760    4.2643289710    3.4026364250
C      -1.2320941530    2.1320112710    6.7538021290
C      -1.2320961790    3.5545591420    6.7542271230
C      -2.4640542260    4.2658164780    0.0514383520
C      -2.4640578460    5.6883616890    0.0510197940
C      -1.2346859420    4.9755970940    3.4026381690
C      -1.2346821050    6.3981456910    3.4026411700
C      -2.4640537820    4.2658279910    6.7538068740
C      -2.4640558080    5.6883758620    6.7542318680
C       2.4637919850   -0.0018125150    0.0514288350
C       2.4637883650    1.4207326960    0.0510102770
C       3.6931602690    0.7079681010    3.4026286520
C       3.6931641060    2.1305166980    3.4026316530
C       2.4637924290   -0.0018010020    6.7537973570
C       2.4637904030    1.4207468690    6.7542223510
C       1.2318323560    2.1320042050    0.0514335800
C       1.2318287360    3.5545494160    0.0510150220
Ch       2.4612006400    2.8417848210    3.4026333970
C       2.4612044770    4.2643334180    3.4026363980
C       1.2318328000    2.1320157180    6.7538021020
C       1.2318307740    3.5545635890    6.7542270960
C      -0.0001272730    4.2658209250    0.0514383250
C      -0.0001308930    5.6883661360    0.0510197670
C       1.2292410110    4.9756015410    3.4026381420
C       1.2292448480    6.3981501380    3.4026411430
C      -0.0001268290    4.2658324380    6.7538068470
C      -0.0001288550    5.6883803090    6.7542318410
C       4.9277189380   -0.0018080680    0.0514288080
C       4.9277153180    1.4207371430    0.0510102500
C       6.1570872220    0.7079725480    3.4026286250
C       6.1570910590    2.1305211450    3.4026316260
C       4.9277193820   -0.0017965550    6.7537973300
C       4.9277173560    1.4207513160    6.7542223240
C       3.6957593090    2.1320086520    0.0514335530
C       3.6957556890    3.5545538630    0.0510149950
C       4.9251275930    2.8417892680    3.4026333700
C       4.9251314300    4.2643378650    3.4026363710
C       3.6957597530    2.1320201650    6.7538020750
C       3.6957577270    3.5545680360    6.7542270690
C       2.4637996800    4.2658253720    0.0514382980
C       2.4637960600    5.6883705830    0.0510197400
C       3.6931679640    4.9756059880    3.4026381150
C       3.6931718010    6.3981545850    3.4026411160
C       2.4638001240    4.2658368850    6.7538068200
C       2.4637980980    5.6883847560    6.7542318140
K_POINTS automatic
  8 8 10 0 0 0
