&CONTROL
                 calculation = 'bands', 
                restart_mode = 'from_scratch', 
                      outdir = '/work/mfcaf'
                  pseudo_dir = '/home/ibm/proj/proj394/mfcaf/pseudo',
                      prefix = 'F-diamane' ,
                   verbosity = 'high',
                     tefield = .false.,
                    dipfield = .false.,
                 etot_conv_thr = 1.0D-5,
                 forc_conv_thr = 1.0D-6,
                       nstep = 500,
/
&SYSTEM
                       ibrav = 0,
!!                   celldm(1) = 6.745706807,
                       nat= 45,
                        ntyp = 3,
                        nbnd = 400,
                     ecutwfc = 60.0 ,
                     ecutrho = 480.0,
                 tot_charge = +1.0,
                 occupations = 'smearing' ,
                     degauss = 0.01 ,
                       nspin = 2,
   starting_magnetization(1) = 1.0,
   starting_magnetization(2) = 1.0,
!                 vdw_corr = 'DFT-D',
/
&ELECTRONS
            electron_maxstep = 250,
                    conv_thr = 1.0D-6 ,
                 mixing_mode = 'plain' ,
                 mixing_beta = 0.7 ,
             diagonalization = 'david' ,
/
&IONS
                ion_dynamics = 'bfgs' ,
/
&CELL
                cell_dynamics = 'bfgs',
/
CELL_PARAMETERS  { angstrom }
   6.595283167  -3.807799982   0.000000000
   0.000007064   7.615586090   0.000000000
   0.000000000   0.000000000  23.874410000
ATOMIC_SPECIES
C    	12.011   C.pbe-n-rrkjus_psl.1.0.0.UPF
Ch      12.011   Ch1s.pbe-n-rrkjus_psl.1.0.0.UPF
F       18.998   F.pbe-n-rrkjus_psl.1.0.0.UPF
ATOMIC_POSITIONS { angstrom }
C       -0.022860593   0.363403350   0.275907279
C       -0.755671861   1.632671781  -0.072971669
C        0.709935701  -0.905847208   2.415377240
C       -0.022869147   0.363413087   1.931783578
F        0.709912864  -0.905844096   3.801275554
C       -0.022854902   2.901944095   0.275903550
C       -0.755666050   4.171213817  -0.072972544
C        0.709938720   1.632681124   2.415368634
C       -0.022861837   2.901941708   1.931777700
F        0.709913097   1.632683839   3.801266569
C       -0.022858407   5.440472938   0.275909340
C       -0.755661155   6.709729352  -0.072971788
C        0.709940493   4.171198572   2.415372357
C       -0.022869070   5.440470588   1.931785989
F        0.709915456   4.171210739   3.801270360
C        2.175556526  -0.905855129   0.275907533
C        1.442753319   0.363400005  -0.072976060
C        2.908359411  -2.175120127   2.415368954
C        2.175547114  -0.905849646   1.931778312
F        2.908337041  -2.175111479   3.801265999
C        2.175568507   1.632674233   0.275898344
Ch       1.442758271   2.901943288  -0.072980218
C        2.908358696   0.363415525   2.415365479
C        2.175554052   1.632679328   1.931773227
F        2.908338664   0.363417093   3.801262012
C        2.175566170   4.171201143   0.275903149
C        1.442755882   5.440471499  -0.072972820
C        2.908357844   2.901936991   2.415368952
C        2.175554185   4.171195605   1.931777375
F        2.908338897   2.901944538   3.801267027
C        4.373996956  -2.175126733   0.275911660
C        3.641187172  -0.905857854  -0.072969190
C        5.106784688  -3.444381550   2.415377247
C        4.373983804  -2.175124669   1.931780562
F        5.106763694  -3.444376244   3.801275645
C        4.374001522   0.363415607   0.275907787
C        3.641200107   1.632671617  -0.072976025
C        5.106790509  -0.905857397   2.415369055
C        4.373983787   0.363416525   1.931778805
F        5.106766193  -0.905850899   3.801266086
C        4.374005810   2.901931325   0.275907127
C        3.641197055   4.171201109  -0.072972010
C        5.106785428   1.632671006   2.415377897
C        4.373983662   2.901933216   1.931784390
F        5.106766821   1.632675963   3.801276296
K_POINTS {crystal_b} 
4
0.0000   0.0000   0.0000   30 ! G
0.3333   0.3333   0.0000   30 ! K
0.0000   0.5000   0.0000   30 ! M
0.0000   0.0000   0.0000   30 ! G
