&CONTROL
                 calculation = 'scf',
                restart_mode = 'from_scratch',
                outdir = '/workpar/mfcaf/bidiamondol-OH_C51',
                  pseudo_dir = '/home/ibm/proj/proj394/mfcaf/pseudo',
                      prefix = 'bidiamondol_C51' ,
                   verbosity = 'high',
                     tefield = .false.,
                    dipfield = .false.,
                 etot_conv_thr = 1.0D-5,
                 forc_conv_thr = 1.0D-6,
                       nstep = 500,
/
&SYSTEM
                       ibrav = 0,
!!                       a = 6.5209,
                         nat = 72,
                        ntyp = 4,
                     ecutwfc = 60.00,
                     ecutrho = 480.00 ,
                 occupations = 'smearing' ,
                     degauss = 0.01 ,
                    smearing = 'gaussian' ,
                  tot_charge = +1.0,
                        nbnd = 200,
!                 lda_plus_u = .false.
                       nspin = 2,
! Hubbard_U(1) = 1.0,
! Hubbard_U(2) = 1.0,
starting_magnetization(1) = 1.0,
starting_magnetization(2) = 1.0,
!                  input_dft = 'vdw-df-obk8',
!  edir = 3,
!  emaxpos =  0.65, 
!  eopreg =  0.05,
!  eamp = 0.00972 ,
/
&ELECTRONS
            electron_maxstep = 999,
                    conv_thr = 1.0D-6 ,
                 mixing_mode = 'plain' ,
                 mixing_beta = 0.7 ,
             diagonalization = 'david' ,
            startingwfc = 'random' ,
/
&IONS
                ion_dynamics = 'bfgs' ,
/
!&CELL
!cell_dofree = 2Dxy,
!    press_conv_thr  = 0.5D0
!    press           = 0.D0
!    cell_dynamics   = 'bfgs'
!/
CELL_PARAMETERS  { angstrom }
   6.730578839  -3.850839715   0.000000000
   0.011654980   7.721924839   0.000000000
   0.000000000   0.000000000  26.060296500
ATOMIC_SPECIES
C    	12.011   C.pbe-n-rrkjus_psl.1.0.0.UPF
Ch      12.011   Ch1s.pbe-n-rrkjus_psl.1.0.0.UPF
O       16.000   O.pbe-n-rrkjus_psl.1.0.0.UPF
H        1.008   H.pbe-rrkjus_psl.1.0.0.UPF
ATOMIC_POSITIONS { angstrom }
O        3.410792168  -0.019051960   0.184833911
O        3.389061779  -2.599863186   0.187666962
O        3.333058478  -5.188970501   0.201794594
O        1.097322439   1.242551848   0.201795202
O        1.163368609  -1.309402662   0.184832093
O        1.141665514  -3.890223976   0.187684246
O       -1.094069149   2.541343669   0.187672695
O       -1.150098934  -0.047757747   0.201776023
O       -1.084060570  -2.599755328   0.184834481
O       -2.597616344   0.029101842   5.620051000
O       -0.371995821  -1.261367668   5.622858542
O        1.941504716  -2.522968924   5.605856227
O       -2.541633233   2.618163308   5.605856285
O       -0.350196174   1.319455753   5.620047599
O        1.875458931   0.028951300   5.622845742
O       -2.607714013   5.170169744   5.622839474
O       -0.294254723   3.908550889   5.605859792
O        1.897155127   2.609835336   5.620049080
C       -1.099619689  -2.568933160   1.614851973
C       -1.855061673  -1.289388357   2.131890834
C        1.132661949  -3.862121413   1.613903897
C        0.396977104  -2.567905476   2.128176177
C        3.373525685  -5.142498262   1.618740730
C        2.631669942  -3.856771355   2.131885984
C       -1.109624226  -0.001292980   1.618721262
C       -1.851479168   1.284427149   2.131872621
C        1.147792483  -1.278586660   1.614849030
C        0.392338834   0.000962536   2.131893760
C        3.380065883  -2.571759698   1.613895162
C        2.644370272  -1.277559331   2.128171863
C       -1.103074974   2.569450594   1.613900126
C       -1.838779107   3.863653671   2.128172746
C        1.137784312   1.289069105   1.618739828
C        0.395927716   2.574800039   2.131882077
C        3.395200823   0.011784715   1.614854155
C        2.639749400   1.291337655   2.131899323
C       -1.852992748  -1.293162062   3.679597276
C       -2.588693970   0.001031017   4.193892210
C        0.399038187  -2.571673493   3.675872712
C       -0.356408221  -1.292133058   4.192921036
C        2.642865690  -3.855163745   3.675915829
C        1.901009863  -2.569411194   4.188971569
C       -1.840284057   1.286023634   3.675902114
C       -2.582134143   2.571769034   4.188969664
C        0.394400181  -0.002817504   3.679603500
C       -0.341286536   1.291380510   4.193893460
C        2.646444267  -1.281330486   3.675864840
C        1.891016107  -0.001790089   4.192914808
C       -1.836710208   3.859877520   3.675862721
C       -2.592149203   5.139424449   4.192909231
Ch       0.407114689   2.576387932   3.675908609
C       -0.334741683   3.862137548   4.188970861
C        2.641818253   1.287557015   3.679604882
C        1.906104990   2.581745774   4.193902502
H       -1.707725429  -0.335366316   5.894311873
H       -0.543786877  -2.196306815   5.916788437
H        1.760072750  -3.451923358   5.920550821
H       -2.722612231   1.689089988   5.920522801
H        0.539669940   0.954955976   5.894323799
H        1.704019212  -0.906077353   5.916752059
H       -2.779375647   4.235199500   5.916758776
H       -0.475366015   2.979503552   5.920509884
H        2.787084834   2.245554802   5.894349227
H        3.582453984   0.915858583  -0.109295688
H        2.499271538  -2.235322233  -0.086810115
H        3.514239265  -4.259998409  -0.113034088
H        1.278722885   2.171452763  -0.113079485
H        1.334931347  -0.374458721  -0.109271217
H        0.251838328  -3.525801063  -0.086794347
H       -1.983873203   2.905847914  -0.086791868
H       -0.968902811   0.881213746  -0.113047333
H       -0.912502182  -1.664824510  -0.109295078
K_POINTS automatic
  3 3 1 0 0 0
