&CONTROL
                 calculation = 'bands', 
                restart_mode = 'from_scratch', 
                      outdir = '/work/mfcaf'
                  pseudo_dir = '/home/ibm/proj/proj394/mfcaf/pseudo',
                      prefix = 'bi-F-diamane' ,
                   verbosity = 'high',
                     tefield = .false.,
                    dipfield = .false.,
                 etot_conv_thr = 1.0D-5,
                 forc_conv_thr = 1.0D-6,
                       nstep = 500,
/
&SYSTEM
                       ibrav = 0,
!!                   celldm(1) = 6.745706807,
                         nat = 54,
                        ntyp = 3,
                        nbnd = 400,
                     ecutwfc = 60.0 ,
                     ecutrho = 480.0,
                 tot_charge = +1.0,
                 occupations = 'smearing' ,
                     degauss = 0.01 ,
                    smearing = 'gaussian' ,
/
&ELECTRONS
            electron_maxstep = 250,
                    conv_thr = 1.0D-6 ,
                 mixing_mode = 'plain' ,
                 mixing_beta = 0.7 ,
             diagonalization = 'david' ,
/
&IONS
                ion_dynamics = 'bfgs' ,
/
&CELL
                cell_dynamics = 'bfgs',
/
CELL_PARAMETERS  { angstrom }
   6.648313413  -3.838413773   0.000000000
   0.000007522   7.676814273   0.000000000
   0.000000000   0.000000000  25.309180000
ATOMIC_SPECIES
C    	12.011   C.pbe-n-rrkjus_psl.1.0.0.UPF
Ch      12.011   Ch1s.pbe-n-rrkjus_psl.1.0.0.UPF
F       18.998   F.pbe-n-rrkjus_psl.1.0.0.UPF
ATOMIC_POSITIONS { angstrom }
F       -0.764470125   1.645818940   0.189125257
C       -0.025742448   0.366330921   2.067657145
C       -0.764449547   1.645805346   1.563451939
C        0.712961897  -0.913130356   4.124179710
C       -0.025736977   0.366337439   3.619822738
F        0.712942257  -0.913133487   5.498428772
F       -0.764463829   4.204759106   0.189125791
C       -0.025735205   2.925280275   2.067657096
C       -0.764444407   4.204757366   1.563453359
C        0.712964713   1.645807991   4.124176073
C       -0.025728679   2.925271499   3.619821756
F        0.712942815   1.645807196   5.498426348
F       -0.764462462   6.763694122   0.189124845
C       -0.025742435   5.484218397   2.067658748
C       -0.764440211   6.763681064   1.563452995
C        0.712967504   4.204730487   4.124177235
C       -0.025738018   5.484209816   3.619824218
F        0.712948102   4.204741532   5.498426880
F        1.451636916   0.366344897   0.189123228
C        2.190349688  -0.913130203   2.067658239
C        1.451654426   0.366330163   1.563449947
C        2.929060436  -2.192609907   4.124173573
C        2.190353465  -0.913130376   3.619822039
F        2.929043667  -2.192607348   5.498422173
F        1.451640495   2.925289603   0.189122706
C        2.190363583   1.645807473   2.067655745
C        1.451660046   2.925281243   1.563448560
C        2.929058524   0.366337215   4.124176641
Ch       2.190359656   1.645807308   3.619821258
F        2.929045040   0.366335379   5.498426243
F        1.451642338   5.484224290   0.189125895
C        2.190360383   4.204738620   2.067656768
C        1.451656466   5.484218657   1.563453220
C        2.929056754   2.925267355   4.124175565
C        2.190360468   4.204728156   3.619819959
F        2.929046991   2.925275153   5.498425637
F        3.667742419  -0.913125295   0.189127997
C        4.406471296  -2.192609920   2.067658661
C        3.667763838  -0.913132252   1.563454966
C        5.145164162  -3.472072935   4.124177017
C        4.406471302  -2.192612046   3.619820991
F        5.145145507  -3.472072876   5.498425813
F        3.667748194   1.645816369   0.189124556
C        4.406474643   0.366346235   2.067658713
C        3.667776771   1.645806216   1.563451498
C        5.145171817  -0.913142361   4.124176154
C        4.406469705   0.366339421   3.619823311
F        5.145151811  -0.913138715   5.498425274
F        3.667748041   4.204754513   0.189125456
C        4.406478000   2.925265848   2.067657896
C        3.667773767   4.204742467   1.563452381
C        5.145165056   1.645796009   4.124181288
C        4.406468145   2.925263959   3.619822858
F        5.145151929   1.645799523   5.498430195
K_POINTS {crystal_b} 
4
0.0000   0.0000   0.0000   30 ! G
0.3333   0.3333   0.0000   30 ! K
0.0000   0.5000   0.0000   30 ! M
0.0000   0.0000   0.0000   30 ! G
